# Objective value = 4
x0 0
x1 0
x2 0
x3 0
x4 0
x5 0
x6 0
x7 0
x8 0
x9 0
x10 0
x11 0
x12 0
x13 0
x14 0
x15 0
x16 0
x17 0
x18 0
x19 0
x20 0
x21 0
x22 0
x23 0
x24 0
x25 0
x26 0
x27 0
x28 0
x29 0
x30 0
x31 0
x32 0
x33 0
x34 0
x35 0
x36 0
x37 0
x38 0
x39 0
x40 0
x41 0
x42 0
x43 0
x44 0
x45 1
x46 0
x47 0
x48 0
x49 0
x50 0
x51 0
x52 0
x53 0
x54 0
x55 0
x56 0
x57 0
x58 0
x59 0
x60 0
x61 0
x62 0
x63 0
x64 0
x65 0
x66 0
x67 1
x68 0
x69 0
x70 0
x71 0
x72 0
x73 0
x74 0
x75 0
x76 1
x77 0
x78 0
x79 0
x80 0
x81 0
x82 1
x83 0
y0,1 0
y0,2 0
y0,3 0
y0,4 0
y0,5 0
y0,6 0
y0,7 0
y0,8 0
y0,9 0
y0,10 0
y0,11 0
y0,12 0
y0,13 0
y0,14 0
y0,15 0
y0,16 0
y0,17 0
y0,18 0
y0,19 0
y0,20 0
y0,21 0
y0,22 0
y0,23 0
y0,24 0
y0,25 0
y0,26 0
y0,27 0
y0,28 0
y0,29 0
y0,30 0
y0,31 0
y0,32 0
y0,33 0
y0,34 0
y0,35 0
y0,36 0
y0,37 0
y0,38 0
y0,39 0
y0,40 0
y0,41 0
y0,42 0
y0,43 0
y0,44 0
y0,45 0
y0,46 0
y0,47 0
y0,48 0
y0,49 0
y0,50 0
y0,51 0
y0,52 0
y0,53 0
y0,54 0
y0,55 0
y0,56 0
y0,57 0
y0,58 0
y0,59 0
y0,60 0
y0,61 0
y0,62 0
y0,63 0
y0,64 0
y0,65 0
y0,66 0
y0,67 0
y0,68 0
y0,69 0
y0,70 0
y0,71 0
y0,72 0
y0,73 0
y0,74 0
y0,75 0
y0,76 0
y0,77 0
y0,78 0
y0,79 0
y0,80 0
y0,81 0
y0,82 0
y0,83 0
y1,2 0
y1,3 0
y1,4 0
y1,5 0
y1,6 0
y1,7 0
y1,8 0
y1,9 0
y1,10 0
y1,11 0
y1,12 0
y1,13 0
y1,14 0
y1,15 0
y1,16 0
y1,17 0
y1,18 0
y1,19 0
y1,20 0
y1,21 0
y1,22 0
y1,23 0
y1,24 0
y1,25 0
y1,26 0
y1,27 0
y1,28 0
y1,29 0
y1,30 0
y1,31 0
y1,32 0
y1,33 0
y1,34 0
y1,35 0
y1,36 0
y1,37 0
y1,38 0
y1,39 0
y1,40 0
y1,41 0
y1,42 0
y1,43 0
y1,44 0
y1,45 0
y1,46 0
y1,47 0
y1,48 0
y1,49 0
y1,50 0
y1,51 0
y1,52 0
y1,53 0
y1,54 0
y1,55 0
y1,56 0
y1,57 0
y1,58 0
y1,59 0
y1,60 0
y1,61 0
y1,62 0
y1,63 0
y1,64 0
y1,65 0
y1,66 0
y1,67 0
y1,68 0
y1,69 0
y1,70 0
y1,71 0
y1,72 0
y1,73 0
y1,74 0
y1,75 0
y1,76 0
y1,77 0
y1,78 0
y1,79 0
y1,80 0
y1,81 0
y1,82 0
y1,83 0
y2,3 0
y2,4 0
y2,5 0
y2,6 0
y2,7 0
y2,8 0
y2,9 0
y2,10 0
y2,11 0
y2,12 0
y2,13 0
y2,14 0
y2,15 0
y2,16 0
y2,17 0
y2,18 0
y2,19 0
y2,20 0
y2,21 0
y2,22 0
y2,23 0
y2,24 0
y2,25 0
y2,26 0
y2,27 0
y2,28 0
y2,29 0
y2,30 0
y2,31 0
y2,32 0
y2,33 0
y2,34 0
y2,35 0
y2,36 0
y2,37 0
y2,38 0
y2,39 0
y2,40 0
y2,41 0
y2,42 0
y2,43 0
y2,44 0
y2,45 0
y2,46 0
y2,47 0
y2,48 0
y2,49 0
y2,50 0
y2,51 0
y2,52 0
y2,53 0
y2,54 0
y2,55 0
y2,56 0
y2,57 0
y2,58 0
y2,59 0
y2,60 0
y2,61 0
y2,62 0
y2,63 0
y2,64 0
y2,65 0
y2,66 0
y2,67 0
y2,68 0
y2,69 0
y2,70 0
y2,71 0
y2,72 0
y2,73 0
y2,74 0
y2,75 0
y2,76 0
y2,77 0
y2,78 0
y2,79 0
y2,80 0
y2,81 0
y2,82 0
y2,83 0
y3,4 0
y3,5 0
y3,6 0
y3,7 0
y3,8 0
y3,9 0
y3,10 0
y3,11 0
y3,12 0
y3,13 0
y3,14 0
y3,15 0
y3,16 0
y3,17 0
y3,18 0
y3,19 0
y3,20 0
y3,21 0
y3,22 0
y3,23 0
y3,24 0
y3,25 0
y3,26 0
y3,27 0
y3,28 0
y3,29 0
y3,30 0
y3,31 0
y3,32 0
y3,33 0
y3,34 0
y3,35 0
y3,36 0
y3,37 0
y3,38 0
y3,39 0
y3,40 0
y3,41 0
y3,42 0
y3,43 0
y3,44 0
y3,45 0
y3,46 0
y3,47 0
y3,48 0
y3,49 0
y3,50 0
y3,51 0
y3,52 0
y3,53 0
y3,54 0
y3,55 0
y3,56 0
y3,57 0
y3,58 0
y3,59 0
y3,60 0
y3,61 0
y3,62 0
y3,63 0
y3,64 0
y3,65 0
y3,66 0
y3,67 0
y3,68 0
y3,69 0
y3,70 0
y3,71 0
y3,72 0
y3,73 0
y3,74 0
y3,75 0
y3,76 0
y3,77 0
y3,78 0
y3,79 0
y3,80 0
y3,81 0
y3,82 0
y3,83 0
y4,5 0
y4,6 0
y4,7 0
y4,8 0
y4,9 0
y4,10 0
y4,11 0
y4,12 0
y4,13 0
y4,14 0
y4,15 0
y4,16 0
y4,17 0
y4,18 0
y4,19 0
y4,20 0
y4,21 0
y4,22 0
y4,23 0
y4,24 0
y4,25 0
y4,26 0
y4,27 0
y4,28 0
y4,29 0
y4,30 0
y4,31 0
y4,32 0
y4,33 0
y4,34 0
y4,35 0
y4,36 0
y4,37 0
y4,38 0
y4,39 0
y4,40 0
y4,41 0
y4,42 0
y4,43 0
y4,44 0
y4,45 0
y4,46 0
y4,47 0
y4,48 0
y4,49 0
y4,50 0
y4,51 0
y4,52 0
y4,53 0
y4,54 0
y4,55 0
y4,56 0
y4,57 0
y4,58 0
y4,59 0
y4,60 0
y4,61 0
y4,62 0
y4,63 0
y4,64 0
y4,65 0
y4,66 0
y4,67 0
y4,68 0
y4,69 0
y4,70 0
y4,71 0
y4,72 0
y4,73 0
y4,74 0
y4,75 0
y4,76 0
y4,77 0
y4,78 0
y4,79 0
y4,80 0
y4,81 0
y4,82 0
y4,83 0
y5,6 0
y5,7 0
y5,8 0
y5,9 0
y5,10 0
y5,11 0
y5,12 0
y5,13 0
y5,14 0
y5,15 0
y5,16 0
y5,17 0
y5,18 0
y5,19 0
y5,20 0
y5,21 0
y5,22 0
y5,23 0
y5,24 0
y5,25 0
y5,26 0
y5,27 0
y5,28 0
y5,29 0
y5,30 0
y5,31 0
y5,32 0
y5,33 0
y5,34 0
y5,35 0
y5,36 0
y5,37 0
y5,38 0
y5,39 0
y5,40 0
y5,41 0
y5,42 0
y5,43 0
y5,44 0
y5,45 0
y5,46 0
y5,47 0
y5,48 0
y5,49 0
y5,50 0
y5,51 0
y5,52 0
y5,53 0
y5,54 0
y5,55 0
y5,56 0
y5,57 0
y5,58 0
y5,59 0
y5,60 0
y5,61 0
y5,62 0
y5,63 0
y5,64 0
y5,65 0
y5,66 0
y5,67 0
y5,68 0
y5,69 0
y5,70 0
y5,71 0
y5,72 0
y5,73 0
y5,74 0
y5,75 0
y5,76 0
y5,77 0
y5,78 0
y5,79 0
y5,80 0
y5,81 0
y5,82 0
y5,83 0
y6,7 0
y6,8 0
y6,9 0
y6,10 0
y6,11 0
y6,12 0
y6,13 0
y6,14 0
y6,15 0
y6,16 0
y6,17 0
y6,18 0
y6,19 0
y6,20 0
y6,21 0
y6,22 0
y6,23 0
y6,24 0
y6,25 0
y6,26 0
y6,27 0
y6,28 0
y6,29 0
y6,30 0
y6,31 0
y6,32 0
y6,33 0
y6,34 0
y6,35 0
y6,36 0
y6,37 0
y6,38 0
y6,39 0
y6,40 0
y6,41 0
y6,42 0
y6,43 0
y6,44 0
y6,45 0
y6,46 0
y6,47 0
y6,48 0
y6,49 0
y6,50 0
y6,51 0
y6,52 0
y6,53 0
y6,54 0
y6,55 0
y6,56 0
y6,57 0
y6,58 0
y6,59 0
y6,60 0
y6,61 0
y6,62 0
y6,63 0
y6,64 0
y6,65 0
y6,66 0
y6,67 0
y6,68 0
y6,69 0
y6,70 0
y6,71 0
y6,72 0
y6,73 0
y6,74 0
y6,75 0
y6,76 0
y6,77 0
y6,78 0
y6,79 0
y6,80 0
y6,81 0
y6,82 0
y6,83 0
y7,8 0
y7,9 0
y7,10 0
y7,11 0
y7,12 0
y7,13 0
y7,14 0
y7,15 0
y7,16 0
y7,17 0
y7,18 0
y7,19 0
y7,20 0
y7,21 0
y7,22 0
y7,23 0
y7,24 0
y7,25 0
y7,26 0
y7,27 0
y7,28 0
y7,29 0
y7,30 0
y7,31 0
y7,32 0
y7,33 0
y7,34 0
y7,35 0
y7,36 0
y7,37 0
y7,38 0
y7,39 0
y7,40 0
y7,41 0
y7,42 0
y7,43 0
y7,44 0
y7,45 0
y7,46 0
y7,47 0
y7,48 0
y7,49 0
y7,50 0
y7,51 0
y7,52 0
y7,53 0
y7,54 0
y7,55 0
y7,56 0
y7,57 0
y7,58 0
y7,59 0
y7,60 0
y7,61 0
y7,62 0
y7,63 0
y7,64 0
y7,65 0
y7,66 0
y7,67 0
y7,68 0
y7,69 0
y7,70 0
y7,71 0
y7,72 0
y7,73 0
y7,74 0
y7,75 0
y7,76 0
y7,77 0
y7,78 0
y7,79 0
y7,80 0
y7,81 0
y7,82 0
y7,83 0
y8,9 0
y8,10 0
y8,11 0
y8,12 0
y8,13 0
y8,14 0
y8,15 0
y8,16 0
y8,17 0
y8,18 0
y8,19 0
y8,20 0
y8,21 0
y8,22 0
y8,23 0
y8,24 0
y8,25 0
y8,26 0
y8,27 0
y8,28 0
y8,29 0
y8,30 0
y8,31 0
y8,32 0
y8,33 0
y8,34 0
y8,35 0
y8,36 0
y8,37 0
y8,38 0
y8,39 0
y8,40 0
y8,41 0
y8,42 0
y8,43 0
y8,44 0
y8,45 0
y8,46 0
y8,47 0
y8,48 0
y8,49 0
y8,50 0
y8,51 0
y8,52 0
y8,53 0
y8,54 0
y8,55 0
y8,56 0
y8,57 0
y8,58 0
y8,59 0
y8,60 0
y8,61 0
y8,62 0
y8,63 0
y8,64 0
y8,65 0
y8,66 0
y8,67 0
y8,68 0
y8,69 0
y8,70 0
y8,71 0
y8,72 0
y8,73 0
y8,74 0
y8,75 0
y8,76 0
y8,77 0
y8,78 0
y8,79 0
y8,80 0
y8,81 0
y8,82 0
y8,83 0
y9,10 0
y9,11 0
y9,12 0
y9,13 0
y9,14 0
y9,15 0
y9,16 0
y9,17 0
y9,18 0
y9,19 0
y9,20 0
y9,21 0
y9,22 0
y9,23 0
y9,24 0
y9,25 0
y9,26 0
y9,27 0
y9,28 0
y9,29 0
y9,30 0
y9,31 0
y9,32 0
y9,33 0
y9,34 0
y9,35 0
y9,36 0
y9,37 0
y9,38 0
y9,39 0
y9,40 0
y9,41 0
y9,42 0
y9,43 0
y9,44 0
y9,45 0
y9,46 0
y9,47 0
y9,48 0
y9,49 0
y9,50 0
y9,51 0
y9,52 0
y9,53 0
y9,54 0
y9,55 0
y9,56 0
y9,57 0
y9,58 0
y9,59 0
y9,60 0
y9,61 0
y9,62 0
y9,63 0
y9,64 0
y9,65 0
y9,66 0
y9,67 0
y9,68 0
y9,69 0
y9,70 0
y9,71 0
y9,72 0
y9,73 0
y9,74 0
y9,75 0
y9,76 0
y9,77 0
y9,78 0
y9,79 0
y9,80 0
y9,81 0
y9,82 0
y9,83 0
y10,11 0
y10,12 0
y10,13 0
y10,14 0
y10,15 0
y10,16 0
y10,17 0
y10,18 0
y10,19 0
y10,20 0
y10,21 0
y10,22 0
y10,23 0
y10,24 0
y10,25 0
y10,26 0
y10,27 0
y10,28 0
y10,29 0
y10,30 0
y10,31 0
y10,32 0
y10,33 0
y10,34 0
y10,35 0
y10,36 0
y10,37 0
y10,38 0
y10,39 0
y10,40 0
y10,41 0
y10,42 0
y10,43 0
y10,44 0
y10,45 0
y10,46 0
y10,47 0
y10,48 0
y10,49 0
y10,50 0
y10,51 0
y10,52 0
y10,53 0
y10,54 0
y10,55 0
y10,56 0
y10,57 0
y10,58 0
y10,59 0
y10,60 0
y10,61 0
y10,62 0
y10,63 0
y10,64 0
y10,65 0
y10,66 0
y10,67 0
y10,68 0
y10,69 0
y10,70 0
y10,71 0
y10,72 0
y10,73 0
y10,74 0
y10,75 0
y10,76 0
y10,77 0
y10,78 0
y10,79 0
y10,80 0
y10,81 0
y10,82 0
y10,83 0
y11,12 0
y11,13 0
y11,14 0
y11,15 0
y11,16 0
y11,17 0
y11,18 0
y11,19 0
y11,20 0
y11,21 0
y11,22 0
y11,23 0
y11,24 0
y11,25 0
y11,26 0
y11,27 0
y11,28 0
y11,29 0
y11,30 0
y11,31 0
y11,32 0
y11,33 0
y11,34 0
y11,35 0
y11,36 0
y11,37 0
y11,38 0
y11,39 0
y11,40 0
y11,41 0
y11,42 0
y11,43 0
y11,44 0
y11,45 0
y11,46 0
y11,47 0
y11,48 0
y11,49 0
y11,50 0
y11,51 0
y11,52 0
y11,53 0
y11,54 0
y11,55 0
y11,56 0
y11,57 0
y11,58 0
y11,59 0
y11,60 0
y11,61 0
y11,62 0
y11,63 0
y11,64 0
y11,65 0
y11,66 0
y11,67 0
y11,68 0
y11,69 0
y11,70 0
y11,71 0
y11,72 0
y11,73 0
y11,74 0
y11,75 0
y11,76 0
y11,77 0
y11,78 0
y11,79 0
y11,80 0
y11,81 0
y11,82 0
y11,83 0
y12,13 0
y12,14 0
y12,15 0
y12,16 0
y12,17 0
y12,18 0
y12,19 0
y12,20 0
y12,21 0
y12,22 0
y12,23 0
y12,24 0
y12,25 0
y12,26 0
y12,27 0
y12,28 0
y12,29 0
y12,30 0
y12,31 0
y12,32 0
y12,33 0
y12,34 0
y12,35 0
y12,36 0
y12,37 0
y12,38 0
y12,39 0
y12,40 0
y12,41 0
y12,42 0
y12,43 0
y12,44 0
y12,45 0
y12,46 0
y12,47 0
y12,48 0
y12,49 0
y12,50 0
y12,51 0
y12,52 0
y12,53 0
y12,54 0
y12,55 0
y12,56 0
y12,57 0
y12,58 0
y12,59 0
y12,60 0
y12,61 0
y12,62 0
y12,63 0
y12,64 0
y12,65 0
y12,66 0
y12,67 0
y12,68 0
y12,69 0
y12,70 0
y12,71 0
y12,72 0
y12,73 0
y12,74 0
y12,75 0
y12,76 0
y12,77 0
y12,78 0
y12,79 0
y12,80 0
y12,81 0
y12,82 0
y12,83 0
y13,14 0
y13,15 0
y13,16 0
y13,17 0
y13,18 0
y13,19 0
y13,20 0
y13,21 0
y13,22 0
y13,23 0
y13,24 0
y13,25 0
y13,26 0
y13,27 0
y13,28 0
y13,29 0
y13,30 0
y13,31 0
y13,32 0
y13,33 0
y13,34 0
y13,35 0
y13,36 0
y13,37 0
y13,38 0
y13,39 0
y13,40 0
y13,41 0
y13,42 0
y13,43 0
y13,44 0
y13,45 0
y13,46 0
y13,47 0
y13,48 0
y13,49 0
y13,50 0
y13,51 0
y13,52 0
y13,53 0
y13,54 0
y13,55 0
y13,56 0
y13,57 0
y13,58 0
y13,59 0
y13,60 0
y13,61 0
y13,62 0
y13,63 0
y13,64 0
y13,65 0
y13,66 0
y13,67 0
y13,68 0
y13,69 0
y13,70 0
y13,71 0
y13,72 0
y13,73 0
y13,74 0
y13,75 0
y13,76 0
y13,77 0
y13,78 0
y13,79 0
y13,80 0
y13,81 0
y13,82 0
y13,83 0
y14,15 0
y14,16 0
y14,17 0
y14,18 0
y14,19 0
y14,20 0
y14,21 0
y14,22 0
y14,23 0
y14,24 0
y14,25 0
y14,26 0
y14,27 0
y14,28 0
y14,29 0
y14,30 0
y14,31 0
y14,32 0
y14,33 0
y14,34 0
y14,35 0
y14,36 0
y14,37 0
y14,38 0
y14,39 0
y14,40 0
y14,41 0
y14,42 0
y14,43 0
y14,44 0
y14,45 0
y14,46 0
y14,47 0
y14,48 0
y14,49 0
y14,50 0
y14,51 0
y14,52 0
y14,53 0
y14,54 0
y14,55 0
y14,56 0
y14,57 0
y14,58 0
y14,59 0
y14,60 0
y14,61 0
y14,62 0
y14,63 0
y14,64 0
y14,65 0
y14,66 0
y14,67 0
y14,68 0
y14,69 0
y14,70 0
y14,71 0
y14,72 0
y14,73 0
y14,74 0
y14,75 0
y14,76 0
y14,77 0
y14,78 0
y14,79 0
y14,80 0
y14,81 0
y14,82 0
y14,83 0
y15,16 0
y15,17 0
y15,18 0
y15,19 0
y15,20 0
y15,21 0
y15,22 0
y15,23 0
y15,24 0
y15,25 0
y15,26 0
y15,27 0
y15,28 0
y15,29 0
y15,30 0
y15,31 0
y15,32 0
y15,33 0
y15,34 0
y15,35 0
y15,36 0
y15,37 0
y15,38 0
y15,39 0
y15,40 0
y15,41 0
y15,42 0
y15,43 0
y15,44 0
y15,45 0
y15,46 0
y15,47 0
y15,48 0
y15,49 0
y15,50 0
y15,51 0
y15,52 0
y15,53 0
y15,54 0
y15,55 0
y15,56 0
y15,57 0
y15,58 0
y15,59 0
y15,60 0
y15,61 0
y15,62 0
y15,63 0
y15,64 0
y15,65 0
y15,66 0
y15,67 0
y15,68 0
y15,69 0
y15,70 0
y15,71 0
y15,72 0
y15,73 0
y15,74 0
y15,75 0
y15,76 0
y15,77 0
y15,78 0
y15,79 0
y15,80 0
y15,81 0
y15,82 0
y15,83 0
y16,17 0
y16,18 0
y16,19 0
y16,20 0
y16,21 0
y16,22 0
y16,23 0
y16,24 0
y16,25 0
y16,26 0
y16,27 0
y16,28 0
y16,29 0
y16,30 0
y16,31 0
y16,32 0
y16,33 0
y16,34 0
y16,35 0
y16,36 0
y16,37 0
y16,38 0
y16,39 0
y16,40 0
y16,41 0
y16,42 0
y16,43 0
y16,44 0
y16,45 0
y16,46 0
y16,47 0
y16,48 0
y16,49 0
y16,50 0
y16,51 0
y16,52 0
y16,53 0
y16,54 0
y16,55 0
y16,56 0
y16,57 0
y16,58 0
y16,59 0
y16,60 0
y16,61 0
y16,62 0
y16,63 0
y16,64 0
y16,65 0
y16,66 0
y16,67 0
y16,68 0
y16,69 0
y16,70 0
y16,71 0
y16,72 0
y16,73 0
y16,74 0
y16,75 0
y16,76 0
y16,77 0
y16,78 0
y16,79 0
y16,80 0
y16,81 0
y16,82 0
y16,83 0
y17,18 0
y17,19 0
y17,20 0
y17,21 0
y17,22 0
y17,23 0
y17,24 0
y17,25 0
y17,26 0
y17,27 0
y17,28 0
y17,29 0
y17,30 0
y17,31 0
y17,32 0
y17,33 0
y17,34 0
y17,35 0
y17,36 0
y17,37 0
y17,38 0
y17,39 0
y17,40 0
y17,41 0
y17,42 0
y17,43 0
y17,44 0
y17,45 0
y17,46 0
y17,47 0
y17,48 0
y17,49 0
y17,50 0
y17,51 0
y17,52 0
y17,53 0
y17,54 0
y17,55 0
y17,56 0
y17,57 0
y17,58 0
y17,59 0
y17,60 0
y17,61 0
y17,62 0
y17,63 0
y17,64 0
y17,65 0
y17,66 0
y17,67 0
y17,68 0
y17,69 0
y17,70 0
y17,71 0
y17,72 0
y17,73 0
y17,74 0
y17,75 0
y17,76 0
y17,77 0
y17,78 0
y17,79 0
y17,80 0
y17,81 0
y17,82 0
y17,83 0
y18,19 0
y18,20 0
y18,21 0
y18,22 0
y18,23 0
y18,24 0
y18,25 0
y18,26 0
y18,27 0
y18,28 0
y18,29 0
y18,30 0
y18,31 0
y18,32 0
y18,33 0
y18,34 0
y18,35 0
y18,36 0
y18,37 0
y18,38 0
y18,39 0
y18,40 0
y18,41 0
y18,42 0
y18,43 0
y18,44 0
y18,45 0
y18,46 0
y18,47 0
y18,48 0
y18,49 0
y18,50 0
y18,51 0
y18,52 0
y18,53 0
y18,54 0
y18,55 0
y18,56 0
y18,57 0
y18,58 0
y18,59 0
y18,60 0
y18,61 0
y18,62 0
y18,63 0
y18,64 0
y18,65 0
y18,66 0
y18,67 0
y18,68 0
y18,69 0
y18,70 0
y18,71 0
y18,72 0
y18,73 0
y18,74 0
y18,75 0
y18,76 0
y18,77 0
y18,78 0
y18,79 0
y18,80 0
y18,81 0
y18,82 0
y18,83 0
y19,20 0
y19,21 0
y19,22 0
y19,23 0
y19,24 0
y19,25 0
y19,26 0
y19,27 0
y19,28 0
y19,29 0
y19,30 0
y19,31 0
y19,32 0
y19,33 0
y19,34 0
y19,35 0
y19,36 0
y19,37 0
y19,38 0
y19,39 0
y19,40 0
y19,41 0
y19,42 0
y19,43 0
y19,44 0
y19,45 0
y19,46 0
y19,47 0
y19,48 0
y19,49 0
y19,50 0
y19,51 0
y19,52 0
y19,53 0
y19,54 0
y19,55 0
y19,56 0
y19,57 0
y19,58 0
y19,59 0
y19,60 0
y19,61 0
y19,62 0
y19,63 0
y19,64 0
y19,65 0
y19,66 0
y19,67 0
y19,68 0
y19,69 0
y19,70 0
y19,71 0
y19,72 0
y19,73 0
y19,74 0
y19,75 0
y19,76 0
y19,77 0
y19,78 0
y19,79 0
y19,80 0
y19,81 0
y19,82 0
y19,83 0
y20,21 0
y20,22 0
y20,23 0
y20,24 0
y20,25 0
y20,26 0
y20,27 0
y20,28 0
y20,29 0
y20,30 0
y20,31 0
y20,32 0
y20,33 0
y20,34 0
y20,35 0
y20,36 0
y20,37 0
y20,38 0
y20,39 0
y20,40 0
y20,41 0
y20,42 0
y20,43 0
y20,44 0
y20,45 0
y20,46 0
y20,47 0
y20,48 0
y20,49 0
y20,50 0
y20,51 0
y20,52 0
y20,53 0
y20,54 0
y20,55 0
y20,56 0
y20,57 0
y20,58 0
y20,59 0
y20,60 0
y20,61 0
y20,62 0
y20,63 0
y20,64 0
y20,65 0
y20,66 0
y20,67 0
y20,68 0
y20,69 0
y20,70 0
y20,71 0
y20,72 0
y20,73 0
y20,74 0
y20,75 0
y20,76 0
y20,77 0
y20,78 0
y20,79 0
y20,80 0
y20,81 0
y20,82 0
y20,83 0
y21,22 0
y21,23 0
y21,24 0
y21,25 0
y21,26 0
y21,27 0
y21,28 0
y21,29 0
y21,30 0
y21,31 0
y21,32 0
y21,33 0
y21,34 0
y21,35 0
y21,36 0
y21,37 0
y21,38 0
y21,39 0
y21,40 0
y21,41 0
y21,42 0
y21,43 0
y21,44 0
y21,45 0
y21,46 0
y21,47 0
y21,48 0
y21,49 0
y21,50 0
y21,51 0
y21,52 0
y21,53 0
y21,54 0
y21,55 0
y21,56 0
y21,57 0
y21,58 0
y21,59 0
y21,60 0
y21,61 0
y21,62 0
y21,63 0
y21,64 0
y21,65 0
y21,66 0
y21,67 0
y21,68 0
y21,69 0
y21,70 0
y21,71 0
y21,72 0
y21,73 0
y21,74 0
y21,75 0
y21,76 0
y21,77 0
y21,78 0
y21,79 0
y21,80 0
y21,81 0
y21,82 0
y21,83 0
y22,23 0
y22,24 0
y22,25 0
y22,26 0
y22,27 0
y22,28 0
y22,29 0
y22,30 0
y22,31 0
y22,32 0
y22,33 0
y22,34 0
y22,35 0
y22,36 0
y22,37 0
y22,38 0
y22,39 0
y22,40 0
y22,41 0
y22,42 0
y22,43 0
y22,44 0
y22,45 0
y22,46 0
y22,47 0
y22,48 0
y22,49 0
y22,50 0
y22,51 0
y22,52 0
y22,53 0
y22,54 0
y22,55 0
y22,56 0
y22,57 0
y22,58 0
y22,59 0
y22,60 0
y22,61 0
y22,62 0
y22,63 0
y22,64 0
y22,65 0
y22,66 0
y22,67 0
y22,68 0
y22,69 0
y22,70 0
y22,71 0
y22,72 0
y22,73 0
y22,74 0
y22,75 0
y22,76 0
y22,77 0
y22,78 0
y22,79 0
y22,80 0
y22,81 0
y22,82 0
y22,83 0
y23,24 0
y23,25 0
y23,26 0
y23,27 0
y23,28 0
y23,29 0
y23,30 0
y23,31 0
y23,32 0
y23,33 0
y23,34 0
y23,35 0
y23,36 0
y23,37 0
y23,38 0
y23,39 0
y23,40 0
y23,41 0
y23,42 0
y23,43 0
y23,44 0
y23,45 0
y23,46 0
y23,47 0
y23,48 0
y23,49 0
y23,50 0
y23,51 0
y23,52 0
y23,53 0
y23,54 0
y23,55 0
y23,56 0
y23,57 0
y23,58 0
y23,59 0
y23,60 0
y23,61 0
y23,62 0
y23,63 0
y23,64 0
y23,65 0
y23,66 0
y23,67 0
y23,68 0
y23,69 0
y23,70 0
y23,71 0
y23,72 0
y23,73 0
y23,74 0
y23,75 0
y23,76 0
y23,77 0
y23,78 0
y23,79 0
y23,80 0
y23,81 0
y23,82 0
y23,83 0
y24,25 0
y24,26 0
y24,27 0
y24,28 0
y24,29 0
y24,30 0
y24,31 0
y24,32 0
y24,33 0
y24,34 0
y24,35 0
y24,36 0
y24,37 0
y24,38 0
y24,39 0
y24,40 0
y24,41 0
y24,42 0
y24,43 0
y24,44 0
y24,45 0
y24,46 0
y24,47 0
y24,48 0
y24,49 0
y24,50 0
y24,51 0
y24,52 0
y24,53 0
y24,54 0
y24,55 0
y24,56 0
y24,57 0
y24,58 0
y24,59 0
y24,60 0
y24,61 0
y24,62 0
y24,63 0
y24,64 0
y24,65 0
y24,66 0
y24,67 0
y24,68 0
y24,69 0
y24,70 0
y24,71 0
y24,72 0
y24,73 0
y24,74 0
y24,75 0
y24,76 0
y24,77 0
y24,78 0
y24,79 0
y24,80 0
y24,81 0
y24,82 0
y24,83 0
y25,26 0
y25,27 0
y25,28 0
y25,29 0
y25,30 0
y25,31 0
y25,32 0
y25,33 0
y25,34 0
y25,35 0
y25,36 0
y25,37 0
y25,38 0
y25,39 0
y25,40 0
y25,41 0
y25,42 0
y25,43 0
y25,44 0
y25,45 0
y25,46 0
y25,47 0
y25,48 0
y25,49 0
y25,50 0
y25,51 0
y25,52 0
y25,53 0
y25,54 0
y25,55 0
y25,56 0
y25,57 0
y25,58 0
y25,59 0
y25,60 0
y25,61 0
y25,62 0
y25,63 0
y25,64 0
y25,65 0
y25,66 0
y25,67 0
y25,68 0
y25,69 0
y25,70 0
y25,71 0
y25,72 0
y25,73 0
y25,74 0
y25,75 0
y25,76 0
y25,77 0
y25,78 0
y25,79 0
y25,80 0
y25,81 0
y25,82 0
y25,83 0
y26,27 0
y26,28 0
y26,29 0
y26,30 0
y26,31 0
y26,32 0
y26,33 0
y26,34 0
y26,35 0
y26,36 0
y26,37 0
y26,38 0
y26,39 0
y26,40 0
y26,41 0
y26,42 0
y26,43 0
y26,44 0
y26,45 0
y26,46 0
y26,47 0
y26,48 0
y26,49 0
y26,50 0
y26,51 0
y26,52 0
y26,53 0
y26,54 0
y26,55 0
y26,56 0
y26,57 0
y26,58 0
y26,59 0
y26,60 0
y26,61 0
y26,62 0
y26,63 0
y26,64 0
y26,65 0
y26,66 0
y26,67 0
y26,68 0
y26,69 0
y26,70 0
y26,71 0
y26,72 0
y26,73 0
y26,74 0
y26,75 0
y26,76 0
y26,77 0
y26,78 0
y26,79 0
y26,80 0
y26,81 0
y26,82 0
y26,83 0
y27,28 0
y27,29 0
y27,30 0
y27,31 0
y27,32 0
y27,33 0
y27,34 0
y27,35 0
y27,36 0
y27,37 0
y27,38 0
y27,39 0
y27,40 0
y27,41 0
y27,42 0
y27,43 0
y27,44 0
y27,45 0
y27,46 0
y27,47 0
y27,48 0
y27,49 0
y27,50 0
y27,51 0
y27,52 0
y27,53 0
y27,54 0
y27,55 0
y27,56 0
y27,57 0
y27,58 0
y27,59 0
y27,60 0
y27,61 0
y27,62 0
y27,63 0
y27,64 0
y27,65 0
y27,66 0
y27,67 0
y27,68 0
y27,69 0
y27,70 0
y27,71 0
y27,72 0
y27,73 0
y27,74 0
y27,75 0
y27,76 0
y27,77 0
y27,78 0
y27,79 0
y27,80 0
y27,81 0
y27,82 0
y27,83 0
y28,29 0
y28,30 0
y28,31 0
y28,32 0
y28,33 0
y28,34 0
y28,35 0
y28,36 0
y28,37 0
y28,38 0
y28,39 0
y28,40 0
y28,41 0
y28,42 0
y28,43 0
y28,44 0
y28,45 0
y28,46 0
y28,47 0
y28,48 0
y28,49 0
y28,50 0
y28,51 0
y28,52 0
y28,53 0
y28,54 0
y28,55 0
y28,56 0
y28,57 0
y28,58 0
y28,59 0
y28,60 0
y28,61 0
y28,62 0
y28,63 0
y28,64 0
y28,65 0
y28,66 0
y28,67 0
y28,68 0
y28,69 0
y28,70 0
y28,71 0
y28,72 0
y28,73 0
y28,74 0
y28,75 0
y28,76 0
y28,77 0
y28,78 0
y28,79 0
y28,80 0
y28,81 0
y28,82 0
y28,83 0
y29,30 0
y29,31 0
y29,32 0
y29,33 0
y29,34 0
y29,35 0
y29,36 0
y29,37 0
y29,38 0
y29,39 0
y29,40 0
y29,41 0
y29,42 0
y29,43 0
y29,44 0
y29,45 0
y29,46 0
y29,47 0
y29,48 0
y29,49 0
y29,50 0
y29,51 0
y29,52 0
y29,53 0
y29,54 0
y29,55 0
y29,56 0
y29,57 0
y29,58 0
y29,59 0
y29,60 0
y29,61 0
y29,62 0
y29,63 0
y29,64 0
y29,65 0
y29,66 0
y29,67 0
y29,68 0
y29,69 0
y29,70 0
y29,71 0
y29,72 0
y29,73 0
y29,74 0
y29,75 0
y29,76 0
y29,77 0
y29,78 0
y29,79 0
y29,80 0
y29,81 0
y29,82 0
y29,83 0
y30,31 0
y30,32 0
y30,33 0
y30,34 0
y30,35 0
y30,36 0
y30,37 0
y30,38 0
y30,39 0
y30,40 0
y30,41 0
y30,42 0
y30,43 0
y30,44 0
y30,45 0
y30,46 0
y30,47 0
y30,48 0
y30,49 0
y30,50 0
y30,51 0
y30,52 0
y30,53 0
y30,54 0
y30,55 0
y30,56 0
y30,57 0
y30,58 0
y30,59 0
y30,60 0
y30,61 0
y30,62 0
y30,63 0
y30,64 0
y30,65 0
y30,66 0
y30,67 0
y30,68 0
y30,69 0
y30,70 0
y30,71 0
y30,72 0
y30,73 0
y30,74 0
y30,75 0
y30,76 0
y30,77 0
y30,78 0
y30,79 0
y30,80 0
y30,81 0
y30,82 0
y30,83 0
y31,32 0
y31,33 0
y31,34 0
y31,35 0
y31,36 0
y31,37 0
y31,38 0
y31,39 0
y31,40 0
y31,41 0
y31,42 0
y31,43 0
y31,44 0
y31,45 0
y31,46 0
y31,47 0
y31,48 0
y31,49 0
y31,50 0
y31,51 0
y31,52 0
y31,53 0
y31,54 0
y31,55 0
y31,56 0
y31,57 0
y31,58 0
y31,59 0
y31,60 0
y31,61 0
y31,62 0
y31,63 0
y31,64 0
y31,65 0
y31,66 0
y31,67 0
y31,68 0
y31,69 0
y31,70 0
y31,71 0
y31,72 0
y31,73 0
y31,74 0
y31,75 0
y31,76 0
y31,77 0
y31,78 0
y31,79 0
y31,80 0
y31,81 0
y31,82 0
y31,83 0
y32,33 0
y32,34 0
y32,35 0
y32,36 0
y32,37 0
y32,38 0
y32,39 0
y32,40 0
y32,41 0
y32,42 0
y32,43 0
y32,44 0
y32,45 0
y32,46 0
y32,47 0
y32,48 0
y32,49 0
y32,50 0
y32,51 0
y32,52 0
y32,53 0
y32,54 0
y32,55 0
y32,56 0
y32,57 0
y32,58 0
y32,59 0
y32,60 0
y32,61 0
y32,62 0
y32,63 0
y32,64 0
y32,65 0
y32,66 0
y32,67 0
y32,68 0
y32,69 0
y32,70 0
y32,71 0
y32,72 0
y32,73 0
y32,74 0
y32,75 0
y32,76 0
y32,77 0
y32,78 0
y32,79 0
y32,80 0
y32,81 0
y32,82 0
y32,83 0
y33,34 0
y33,35 0
y33,36 0
y33,37 0
y33,38 0
y33,39 0
y33,40 0
y33,41 0
y33,42 0
y33,43 0
y33,44 0
y33,45 0
y33,46 0
y33,47 0
y33,48 0
y33,49 0
y33,50 0
y33,51 0
y33,52 0
y33,53 0
y33,54 0
y33,55 0
y33,56 0
y33,57 0
y33,58 0
y33,59 0
y33,60 0
y33,61 0
y33,62 0
y33,63 0
y33,64 0
y33,65 0
y33,66 0
y33,67 0
y33,68 0
y33,69 0
y33,70 0
y33,71 0
y33,72 0
y33,73 0
y33,74 0
y33,75 0
y33,76 0
y33,77 0
y33,78 0
y33,79 0
y33,80 0
y33,81 0
y33,82 0
y33,83 0
y34,35 0
y34,36 0
y34,37 0
y34,38 0
y34,39 0
y34,40 0
y34,41 0
y34,42 0
y34,43 0
y34,44 0
y34,45 0
y34,46 0
y34,47 0
y34,48 0
y34,49 0
y34,50 0
y34,51 0
y34,52 0
y34,53 0
y34,54 0
y34,55 0
y34,56 0
y34,57 0
y34,58 0
y34,59 0
y34,60 0
y34,61 0
y34,62 0
y34,63 0
y34,64 0
y34,65 0
y34,66 0
y34,67 0
y34,68 0
y34,69 0
y34,70 0
y34,71 0
y34,72 0
y34,73 0
y34,74 0
y34,75 0
y34,76 0
y34,77 0
y34,78 0
y34,79 0
y34,80 0
y34,81 0
y34,82 0
y34,83 0
y35,36 0
y35,37 0
y35,38 0
y35,39 0
y35,40 0
y35,41 0
y35,42 0
y35,43 0
y35,44 0
y35,45 0
y35,46 0
y35,47 0
y35,48 0
y35,49 0
y35,50 0
y35,51 0
y35,52 0
y35,53 0
y35,54 0
y35,55 0
y35,56 0
y35,57 0
y35,58 0
y35,59 0
y35,60 0
y35,61 0
y35,62 0
y35,63 0
y35,64 0
y35,65 0
y35,66 0
y35,67 0
y35,68 0
y35,69 0
y35,70 0
y35,71 0
y35,72 0
y35,73 0
y35,74 0
y35,75 0
y35,76 0
y35,77 0
y35,78 0
y35,79 0
y35,80 0
y35,81 0
y35,82 0
y35,83 0
y36,37 0
y36,38 0
y36,39 0
y36,40 0
y36,41 0
y36,42 0
y36,43 0
y36,44 0
y36,45 0
y36,46 0
y36,47 0
y36,48 0
y36,49 0
y36,50 0
y36,51 0
y36,52 0
y36,53 0
y36,54 0
y36,55 0
y36,56 0
y36,57 0
y36,58 0
y36,59 0
y36,60 0
y36,61 0
y36,62 0
y36,63 0
y36,64 0
y36,65 0
y36,66 0
y36,67 0
y36,68 0
y36,69 0
y36,70 0
y36,71 0
y36,72 0
y36,73 0
y36,74 0
y36,75 0
y36,76 0
y36,77 0
y36,78 0
y36,79 0
y36,80 0
y36,81 0
y36,82 0
y36,83 0
y37,38 0
y37,39 0
y37,40 0
y37,41 0
y37,42 0
y37,43 0
y37,44 0
y37,45 0
y37,46 0
y37,47 0
y37,48 0
y37,49 0
y37,50 0
y37,51 0
y37,52 0
y37,53 0
y37,54 0
y37,55 0
y37,56 0
y37,57 0
y37,58 0
y37,59 0
y37,60 0
y37,61 0
y37,62 0
y37,63 0
y37,64 0
y37,65 0
y37,66 0
y37,67 0
y37,68 0
y37,69 0
y37,70 0
y37,71 0
y37,72 0
y37,73 0
y37,74 0
y37,75 0
y37,76 0
y37,77 0
y37,78 0
y37,79 0
y37,80 0
y37,81 0
y37,82 0
y37,83 0
y38,39 0
y38,40 0
y38,41 0
y38,42 0
y38,43 0
y38,44 0
y38,45 0
y38,46 0
y38,47 0
y38,48 0
y38,49 0
y38,50 0
y38,51 0
y38,52 0
y38,53 0
y38,54 0
y38,55 0
y38,56 0
y38,57 0
y38,58 0
y38,59 0
y38,60 0
y38,61 0
y38,62 0
y38,63 0
y38,64 0
y38,65 0
y38,66 0
y38,67 0
y38,68 0
y38,69 0
y38,70 0
y38,71 0
y38,72 0
y38,73 0
y38,74 0
y38,75 0
y38,76 0
y38,77 0
y38,78 0
y38,79 0
y38,80 0
y38,81 0
y38,82 0
y38,83 0
y39,40 0
y39,41 0
y39,42 0
y39,43 0
y39,44 0
y39,45 0
y39,46 0
y39,47 0
y39,48 0
y39,49 0
y39,50 0
y39,51 0
y39,52 0
y39,53 0
y39,54 0
y39,55 0
y39,56 0
y39,57 0
y39,58 0
y39,59 0
y39,60 0
y39,61 0
y39,62 0
y39,63 0
y39,64 0
y39,65 0
y39,66 0
y39,67 0
y39,68 0
y39,69 0
y39,70 0
y39,71 0
y39,72 0
y39,73 0
y39,74 0
y39,75 0
y39,76 0
y39,77 0
y39,78 0
y39,79 0
y39,80 0
y39,81 0
y39,82 0
y39,83 0
y40,41 0
y40,42 0
y40,43 0
y40,44 0
y40,45 0
y40,46 0
y40,47 0
y40,48 0
y40,49 0
y40,50 0
y40,51 0
y40,52 0
y40,53 0
y40,54 0
y40,55 0
y40,56 0
y40,57 0
y40,58 0
y40,59 0
y40,60 0
y40,61 0
y40,62 0
y40,63 0
y40,64 0
y40,65 0
y40,66 0
y40,67 0
y40,68 0
y40,69 0
y40,70 0
y40,71 0
y40,72 0
y40,73 0
y40,74 0
y40,75 0
y40,76 0
y40,77 0
y40,78 0
y40,79 0
y40,80 0
y40,81 0
y40,82 0
y40,83 0
y41,42 0
y41,43 0
y41,44 0
y41,45 0
y41,46 0
y41,47 0
y41,48 0
y41,49 0
y41,50 0
y41,51 0
y41,52 0
y41,53 0
y41,54 0
y41,55 0
y41,56 0
y41,57 0
y41,58 0
y41,59 0
y41,60 0
y41,61 0
y41,62 0
y41,63 0
y41,64 0
y41,65 0
y41,66 0
y41,67 0
y41,68 0
y41,69 0
y41,70 0
y41,71 0
y41,72 0
y41,73 0
y41,74 0
y41,75 0
y41,76 0
y41,77 0
y41,78 0
y41,79 0
y41,80 0
y41,81 0
y41,82 0
y41,83 0
y42,43 0
y42,44 0
y42,45 0
y42,46 0
y42,47 0
y42,48 0
y42,49 0
y42,50 0
y42,51 0
y42,52 0
y42,53 0
y42,54 0
y42,55 0
y42,56 0
y42,57 0
y42,58 0
y42,59 0
y42,60 0
y42,61 0
y42,62 0
y42,63 0
y42,64 0
y42,65 0
y42,66 0
y42,67 0
y42,68 0
y42,69 0
y42,70 0
y42,71 0
y42,72 0
y42,73 0
y42,74 0
y42,75 0
y42,76 0
y42,77 0
y42,78 0
y42,79 0
y42,80 0
y42,81 0
y42,82 0
y42,83 0
y43,44 0
y43,45 0
y43,46 0
y43,47 0
y43,48 0
y43,49 0
y43,50 0
y43,51 0
y43,52 0
y43,53 0
y43,54 0
y43,55 0
y43,56 0
y43,57 0
y43,58 0
y43,59 0
y43,60 0
y43,61 0
y43,62 0
y43,63 0
y43,64 0
y43,65 0
y43,66 0
y43,67 0
y43,68 0
y43,69 0
y43,70 0
y43,71 0
y43,72 0
y43,73 0
y43,74 0
y43,75 0
y43,76 0
y43,77 0
y43,78 0
y43,79 0
y43,80 0
y43,81 0
y43,82 0
y43,83 0
y44,45 0
y44,46 0
y44,47 0
y44,48 0
y44,49 0
y44,50 0
y44,51 0
y44,52 0
y44,53 0
y44,54 0
y44,55 0
y44,56 0
y44,57 0
y44,58 0
y44,59 0
y44,60 0
y44,61 0
y44,62 0
y44,63 0
y44,64 0
y44,65 0
y44,66 0
y44,67 0
y44,68 0
y44,69 0
y44,70 0
y44,71 0
y44,72 0
y44,73 0
y44,74 0
y44,75 0
y44,76 0
y44,77 0
y44,78 0
y44,79 0
y44,80 0
y44,81 0
y44,82 0
y44,83 0
y45,46 0
y45,47 0
y45,48 0
y45,49 0
y45,50 0
y45,51 0
y45,52 0
y45,53 0
y45,54 0
y45,55 0
y45,56 0
y45,57 0
y45,58 0
y45,59 0
y45,60 0
y45,61 0
y45,62 0
y45,63 0
y45,64 0
y45,65 0
y45,66 0
y45,67 1
y45,68 0
y45,69 0
y45,70 0
y45,71 0
y45,72 0
y45,73 0
y45,74 0
y45,75 0
y45,76 1
y45,77 0
y45,78 0
y45,79 0
y45,80 0
y45,81 0
y45,82 1
y45,83 0
y46,47 0
y46,48 0
y46,49 0
y46,50 0
y46,51 0
y46,52 0
y46,53 0
y46,54 0
y46,55 0
y46,56 0
y46,57 0
y46,58 0
y46,59 0
y46,60 0
y46,61 0
y46,62 0
y46,63 0
y46,64 0
y46,65 0
y46,66 0
y46,67 0
y46,68 0
y46,69 0
y46,70 0
y46,71 0
y46,72 0
y46,73 0
y46,74 0
y46,75 0
y46,76 0
y46,77 0
y46,78 0
y46,79 0
y46,80 0
y46,81 0
y46,82 0
y46,83 0
y47,48 0
y47,49 0
y47,50 0
y47,51 0
y47,52 0
y47,53 0
y47,54 0
y47,55 0
y47,56 0
y47,57 0
y47,58 0
y47,59 0
y47,60 0
y47,61 0
y47,62 0
y47,63 0
y47,64 0
y47,65 0
y47,66 0
y47,67 0
y47,68 0
y47,69 0
y47,70 0
y47,71 0
y47,72 0
y47,73 0
y47,74 0
y47,75 0
y47,76 0
y47,77 0
y47,78 0
y47,79 0
y47,80 0
y47,81 0
y47,82 0
y47,83 0
y48,49 0
y48,50 0
y48,51 0
y48,52 0
y48,53 0
y48,54 0
y48,55 0
y48,56 0
y48,57 0
y48,58 0
y48,59 0
y48,60 0
y48,61 0
y48,62 0
y48,63 0
y48,64 0
y48,65 0
y48,66 0
y48,67 0
y48,68 0
y48,69 0
y48,70 0
y48,71 0
y48,72 0
y48,73 0
y48,74 0
y48,75 0
y48,76 0
y48,77 0
y48,78 0
y48,79 0
y48,80 0
y48,81 0
y48,82 0
y48,83 0
y49,50 0
y49,51 0
y49,52 0
y49,53 0
y49,54 0
y49,55 0
y49,56 0
y49,57 0
y49,58 0
y49,59 0
y49,60 0
y49,61 0
y49,62 0
y49,63 0
y49,64 0
y49,65 0
y49,66 0
y49,67 0
y49,68 0
y49,69 0
y49,70 0
y49,71 0
y49,72 0
y49,73 0
y49,74 0
y49,75 0
y49,76 0
y49,77 0
y49,78 0
y49,79 0
y49,80 0
y49,81 0
y49,82 0
y49,83 0
y50,51 0
y50,52 0
y50,53 0
y50,54 0
y50,55 0
y50,56 0
y50,57 0
y50,58 0
y50,59 0
y50,60 0
y50,61 0
y50,62 0
y50,63 0
y50,64 0
y50,65 0
y50,66 0
y50,67 0
y50,68 0
y50,69 0
y50,70 0
y50,71 0
y50,72 0
y50,73 0
y50,74 0
y50,75 0
y50,76 0
y50,77 0
y50,78 0
y50,79 0
y50,80 0
y50,81 0
y50,82 0
y50,83 0
y51,52 0
y51,53 0
y51,54 0
y51,55 0
y51,56 0
y51,57 0
y51,58 0
y51,59 0
y51,60 0
y51,61 0
y51,62 0
y51,63 0
y51,64 0
y51,65 0
y51,66 0
y51,67 0
y51,68 0
y51,69 0
y51,70 0
y51,71 0
y51,72 0
y51,73 0
y51,74 0
y51,75 0
y51,76 0
y51,77 0
y51,78 0
y51,79 0
y51,80 0
y51,81 0
y51,82 0
y51,83 0
y52,53 0
y52,54 0
y52,55 0
y52,56 0
y52,57 0
y52,58 0
y52,59 0
y52,60 0
y52,61 0
y52,62 0
y52,63 0
y52,64 0
y52,65 0
y52,66 0
y52,67 0
y52,68 0
y52,69 0
y52,70 0
y52,71 0
y52,72 0
y52,73 0
y52,74 0
y52,75 0
y52,76 0
y52,77 0
y52,78 0
y52,79 0
y52,80 0
y52,81 0
y52,82 0
y52,83 0
y53,54 0
y53,55 0
y53,56 0
y53,57 0
y53,58 0
y53,59 0
y53,60 0
y53,61 0
y53,62 0
y53,63 0
y53,64 0
y53,65 0
y53,66 0
y53,67 0
y53,68 0
y53,69 0
y53,70 0
y53,71 0
y53,72 0
y53,73 0
y53,74 0
y53,75 0
y53,76 0
y53,77 0
y53,78 0
y53,79 0
y53,80 0
y53,81 0
y53,82 0
y53,83 0
y54,55 0
y54,56 0
y54,57 0
y54,58 0
y54,59 0
y54,60 0
y54,61 0
y54,62 0
y54,63 0
y54,64 0
y54,65 0
y54,66 0
y54,67 0
y54,68 0
y54,69 0
y54,70 0
y54,71 0
y54,72 0
y54,73 0
y54,74 0
y54,75 0
y54,76 0
y54,77 0
y54,78 0
y54,79 0
y54,80 0
y54,81 0
y54,82 0
y54,83 0
y55,56 0
y55,57 0
y55,58 0
y55,59 0
y55,60 0
y55,61 0
y55,62 0
y55,63 0
y55,64 0
y55,65 0
y55,66 0
y55,67 0
y55,68 0
y55,69 0
y55,70 0
y55,71 0
y55,72 0
y55,73 0
y55,74 0
y55,75 0
y55,76 0
y55,77 0
y55,78 0
y55,79 0
y55,80 0
y55,81 0
y55,82 0
y55,83 0
y56,57 0
y56,58 0
y56,59 0
y56,60 0
y56,61 0
y56,62 0
y56,63 0
y56,64 0
y56,65 0
y56,66 0
y56,67 0
y56,68 0
y56,69 0
y56,70 0
y56,71 0
y56,72 0
y56,73 0
y56,74 0
y56,75 0
y56,76 0
y56,77 0
y56,78 0
y56,79 0
y56,80 0
y56,81 0
y56,82 0
y56,83 0
y57,58 0
y57,59 0
y57,60 0
y57,61 0
y57,62 0
y57,63 0
y57,64 0
y57,65 0
y57,66 0
y57,67 0
y57,68 0
y57,69 0
y57,70 0
y57,71 0
y57,72 0
y57,73 0
y57,74 0
y57,75 0
y57,76 0
y57,77 0
y57,78 0
y57,79 0
y57,80 0
y57,81 0
y57,82 0
y57,83 0
y58,59 0
y58,60 0
y58,61 0
y58,62 0
y58,63 0
y58,64 0
y58,65 0
y58,66 0
y58,67 0
y58,68 0
y58,69 0
y58,70 0
y58,71 0
y58,72 0
y58,73 0
y58,74 0
y58,75 0
y58,76 0
y58,77 0
y58,78 0
y58,79 0
y58,80 0
y58,81 0
y58,82 0
y58,83 0
y59,60 0
y59,61 0
y59,62 0
y59,63 0
y59,64 0
y59,65 0
y59,66 0
y59,67 0
y59,68 0
y59,69 0
y59,70 0
y59,71 0
y59,72 0
y59,73 0
y59,74 0
y59,75 0
y59,76 0
y59,77 0
y59,78 0
y59,79 0
y59,80 0
y59,81 0
y59,82 0
y59,83 0
y60,61 0
y60,62 0
y60,63 0
y60,64 0
y60,65 0
y60,66 0
y60,67 0
y60,68 0
y60,69 0
y60,70 0
y60,71 0
y60,72 0
y60,73 0
y60,74 0
y60,75 0
y60,76 0
y60,77 0
y60,78 0
y60,79 0
y60,80 0
y60,81 0
y60,82 0
y60,83 0
y61,62 0
y61,63 0
y61,64 0
y61,65 0
y61,66 0
y61,67 0
y61,68 0
y61,69 0
y61,70 0
y61,71 0
y61,72 0
y61,73 0
y61,74 0
y61,75 0
y61,76 0
y61,77 0
y61,78 0
y61,79 0
y61,80 0
y61,81 0
y61,82 0
y61,83 0
y62,63 0
y62,64 0
y62,65 0
y62,66 0
y62,67 0
y62,68 0
y62,69 0
y62,70 0
y62,71 0
y62,72 0
y62,73 0
y62,74 0
y62,75 0
y62,76 0
y62,77 0
y62,78 0
y62,79 0
y62,80 0
y62,81 0
y62,82 0
y62,83 0
y63,64 0
y63,65 0
y63,66 0
y63,67 0
y63,68 0
y63,69 0
y63,70 0
y63,71 0
y63,72 0
y63,73 0
y63,74 0
y63,75 0
y63,76 0
y63,77 0
y63,78 0
y63,79 0
y63,80 0
y63,81 0
y63,82 0
y63,83 0
y64,65 0
y64,66 0
y64,67 0
y64,68 0
y64,69 0
y64,70 0
y64,71 0
y64,72 0
y64,73 0
y64,74 0
y64,75 0
y64,76 0
y64,77 0
y64,78 0
y64,79 0
y64,80 0
y64,81 0
y64,82 0
y64,83 0
y65,66 0
y65,67 0
y65,68 0
y65,69 0
y65,70 0
y65,71 0
y65,72 0
y65,73 0
y65,74 0
y65,75 0
y65,76 0
y65,77 0
y65,78 0
y65,79 0
y65,80 0
y65,81 0
y65,82 0
y65,83 0
y66,67 0
y66,68 0
y66,69 0
y66,70 0
y66,71 0
y66,72 0
y66,73 0
y66,74 0
y66,75 0
y66,76 0
y66,77 0
y66,78 0
y66,79 0
y66,80 0
y66,81 0
y66,82 0
y66,83 0
y67,68 0
y67,69 0
y67,70 0
y67,71 0
y67,72 0
y67,73 0
y67,74 0
y67,75 0
y67,76 1
y67,77 0
y67,78 0
y67,79 0
y67,80 0
y67,81 0
y67,82 1
y67,83 0
y68,69 0
y68,70 0
y68,71 0
y68,72 0
y68,73 0
y68,74 0
y68,75 0
y68,76 0
y68,77 0
y68,78 0
y68,79 0
y68,80 0
y68,81 0
y68,82 0
y68,83 0
y69,70 0
y69,71 0
y69,72 0
y69,73 0
y69,74 0
y69,75 0
y69,76 0
y69,77 0
y69,78 0
y69,79 0
y69,80 0
y69,81 0
y69,82 0
y69,83 0
y70,71 0
y70,72 0
y70,73 0
y70,74 0
y70,75 0
y70,76 0
y70,77 0
y70,78 0
y70,79 0
y70,80 0
y70,81 0
y70,82 0
y70,83 0
y71,72 0
y71,73 0
y71,74 0
y71,75 0
y71,76 0
y71,77 0
y71,78 0
y71,79 0
y71,80 0
y71,81 0
y71,82 0
y71,83 0
y72,73 0
y72,74 0
y72,75 0
y72,76 0
y72,77 0
y72,78 0
y72,79 0
y72,80 0
y72,81 0
y72,82 0
y72,83 0
y73,74 0
y73,75 0
y73,76 0
y73,77 0
y73,78 0
y73,79 0
y73,80 0
y73,81 0
y73,82 0
y73,83 0
y74,75 0
y74,76 0
y74,77 0
y74,78 0
y74,79 0
y74,80 0
y74,81 0
y74,82 0
y74,83 0
y75,76 0
y75,77 0
y75,78 0
y75,79 0
y75,80 0
y75,81 0
y75,82 0
y75,83 0
y76,77 0
y76,78 0
y76,79 0
y76,80 0
y76,81 0
y76,82 1
y76,83 0
y77,78 0
y77,79 0
y77,80 0
y77,81 0
y77,82 0
y77,83 0
y78,79 0
y78,80 0
y78,81 0
y78,82 0
y78,83 0
y79,80 0
y79,81 0
y79,82 0
y79,83 0
y80,81 0
y80,82 0
y80,83 0
y81,82 0
y81,83 0
y82,83 0
